(declare-const a Real)
(declare-const b Real)
(declare-const c Real)
(assert (= (+ a b c) 3))
(assert (> a 0))
(assert (> b 0))
(assert (> c 0))
(assert (not (<= (+ (* -6 (pow a 6)) (* -6 (pow b 6)) (* -6 (pow c 6)) (* (pow c 4) (+ (* 63 (pow a 2)) (* 63 (pow b 2)))) (* -198 (pow a 3) (pow b 3)) (* -198 (pow a 3) (pow c 3)) (* -198 (pow b 3) (pow c 3)) (* -106 (pow a 2) (pow b 4)) (* -106 (pow a 2) (pow c 4)) (* -106 (pow a 4) (pow b 2)) (* -106 (pow a 4) (pow c 2)) (* -106 (pow b 2) (pow c 4)) (* -106 (pow b 4) (pow c 2)) (* -13 a (pow b 5)) (* -13 a (pow c 5)) (* -13 b (pow a 5)) (* -13 b (pow c 5)) (* -13 c (pow a 5)) (* -13 c (pow b 5)) (* -1062 (pow a 2) (pow b 2) (pow c 2)) (* 126 a c (pow b 4)) (* 126 b c (pow a 4)) (* 335 a (pow b 2) (pow c 3)) (* 335 a (pow b 3) (pow c 2)) (* 335 b (pow a 2) (pow c 3)) (* 335 b (pow a 3) (pow c 2)) (* 335 c (pow a 2) (pow (+ (/ 2 5) (* (/ 3 5) b)) 5)) (* 335 c (pow a 3) (pow b 2))) 0)))
(check-sat)
(get-model)
(exit)